24
-6 0 1605 3
-3 -4 7452 9
-5 3 944 2
1 0 6338 9
-2 6 6631 0
-4 5 8254 7
0 -5 1572 6
-6 1 7471 0
0 4 9727 2
-2 2 722 3
2 -2 3394 2
6 6 8861 0
3 1 3934 8
0 6 1089 9
6 -4 6264 9
-3 1 2911 1
3 0 9604 8
6 -3 9443 7
0 4 5597 9
5 5 771 8
3 -2 9011 3
1 6 9346 10
-6 -4 2025 2
1 -3 4046 7
